CPXPARAM_Read_DataCheck                          1
Found incumbent of value 0.000000 after 0.00 sec. (1.31 ticks)
Tried aggregator 1 time.
MIP Presolve modified 1 coefficients.
Reduced MIP has 10016 rows, 50005 columns, and 250015 nonzeros.
Reduced MIP has 50005 binaries, 0 generals, 0 SOSs, and 0 indicators.
Presolve time = 0.09 sec. (84.15 ticks)
Probing time = 0.03 sec. (14.49 ticks)
Tried aggregator 1 time.
Reduced MIP has 10016 rows, 50005 columns, and 250015 nonzeros.
Reduced MIP has 50005 binaries, 0 generals, 0 SOSs, and 0 indicators.
Presolve time = 0.14 sec. (105.78 ticks)
Probing time = 0.03 sec. (14.49 ticks)
Clique table members: 50000.
MIP emphasis: balance optimality and feasibility.
MIP search method: dynamic search.
Parallel mode: deterministic, using up to 4 threads.
Root relaxation solution time = 0.72 sec. (707.34 ticks)

        Nodes                                         Cuts/
   Node  Left     Objective  IInf  Best Integer    Best Bound    ItCnt     Gap

*     0+    0                            0.0000   309040.0000              --- 
      0     0   175325.7578     5        0.0000   175325.7578       14     --- 
*     0+    0                       106316.0000   175325.7578            64.91%
*     0+    0                       109000.0000   175325.7578            60.85%
      0     0        cutoff         109000.0000   109000.0000    10519    0.00%
Elapsed time = 43.25 sec. (21019.57 ticks, tree = 0.01 MB, solutions = 3)

Clique cuts applied:  2600
Mixed integer rounding cuts applied:  4

Root node processing (before b&c):
  Real time             =   43.25 sec. (21023.20 ticks)
Parallel b&c, 4 threads:
  Real time             =    0.00 sec. (0.00 ticks)
  Sync time (average)   =    0.00 sec.
  Wait time (average)   =    0.00 sec.
                          ------------
Total (root+branch&cut) =   43.25 sec. (21023.20 ticks)
